50 8
311 482
627 733
636 362
693 552
758 884
591 251
755 248
286 431
563 164
920 937
374 804
332 323
417 507
656 492
391 504
795 343
559 836
692 773
475 553
144 272
403 817
885 918
528 623
396 229
630 849
636 479
208 517
641 425
309 222
473 798
533 173
874 946
952 948
579 533
374 124
952 830
656 638
538 793
387 535
415 433
667 233
419 498
719 507
396 599
526 271
616 223
703 221
943 889
682 658
293 387
